NAME : Bre-4
TYPE : CVRP
DIMENSION : 101
EDGE_WEIGHT_TYPE : EUC_2D 
CAPACITY : 50
NODE_COORD_SECTION
1 50 50
2 45 25
3 48 25
4 52 25
5 55 25
6 2 29
7 98 29
8 2 32
9 47 32
10 50 32
11 53 32
12 98 32
13 16 35
14 84 35
15 2 36
16 98 36
17 48 38
18 52 38
19 2 39
20 16 39
21 84 39
22 98 39
23 28 40
24 72 40
25 16 42
26 84 42
27 28 44
28 50 44
29 72 44
30 40 46
31 60 46
32 44 56
33 56 56
34 36 62
35 40 62
36 60 62
37 64 62
38 29 68
39 32 68
40 35 68
41 65 68
42 68 68
43 71 68
44 19 75
45 22 75
46 25 75
47 28 75
48 72 75
49 75 75
50 78 75
51 81 75
52 19 25
53 22 25
54 25 25
55 28 25
56 72 25
57 75 25
58 78 25
59 81 25
60 29 32
61 32 32
62 35 32
63 65 32
64 68 32
65 71 32
66 36 38
67 40 38
68 60 38
69 64 38
70 44 44
71 56 44
72 40 54
73 60 54
74 28 56
75 50 56
76 72 56
77 16 58
78 84 58
79 28 60
80 72 60
81 2 61
82 16 61
83 84 61
84 98 61
85 48 62
86 52 62
87 2 64
88 98 64
89 16 65
90 84 65
91 2 68
92 47 68
93 50 68
94 53 68
95 98 68
96 2 71
97 98 71
98 45 75
99 48 75
100 52 75
101 55 75
DEMAND_SECTION
1 0
2 10
3 10
4 10
5 10
6 10
7 10
8 10
9 10
10 10
11 10
12 10
13 10
14 10
15 10
16 10
17 10
18 10
19 10
20 10
21 10
22 10
23 10
24 10
25 10
26 10
27 10
28 10
29 10
30 10
31 10
32 10
33 10
34 10
35 10
36 10
37 10
38 10
39 10
40 10
41 10
42 10
43 10
44 10
45 10
46 10
47 10
48 10
49 10
50 10
51 10
52 10
53 10
54 10
55 10
56 10
57 10
58 10
59 10
60 10
61 10
62 10
63 10
64 10
65 10
66 10
67 10
68 10
69 10
70 10
71 10
72 10
73 10
74 10
75 10
76 10
77 10
78 10
79 10
80 10
81 10
82 10
83 10
84 10
85 10
86 10
87 10
88 10
89 10
90 10
91 10
92 10
93 10
94 10
95 10
96 10
97 10
98 10
99 10
100 10
101 10
DEPOT_SECTION
1 
-1
EOF
